1 1 0 1 1 1 0 0 1 0 1 0 0 1 
0 39 14 33 46 38 13 38 26 19 15 13 15 13 
39 0 41 32 9 21 21 27 6 15 49 10 26 9 
14 41 0 45 22 5 36 42 19 14 27 50 26 7 
33 32 45 0 27 10 26 45 47 5 44 49 2 5 
46 9 22 27 0 26 24 39 49 49 6 5 38 37 
38 21 5 10 26 0 20 19 8 16 36 34 39 36 
13 21 36 26 24 20 0 10 30 7 10 9 30 22 
38 27 42 45 39 19 10 0 5 40 46 28 25 39 
26 6 19 47 49 8 30 5 0 25 47 47 29 17 
19 15 14 5 49 16 7 40 25 0 6 43 39 15 
15 49 27 44 6 36 10 46 47 6 0 42 45 15 
13 10 50 49 5 34 9 28 47 43 42 0 2 6 
15 26 26 2 38 39 30 25 29 39 45 2 0 34 
13 9 7 5 37 36 22 39 17 15 15 6 34 0 
2 32
1P 7B 8B 9P 6P 3B 14P 2P 5P 11P 10B 4P 13B 12B = 100